100 500 200 500 10 100
23 434
18 265
92 270
70 370
78 417
38 248
10 249
52 329
39 456
70 373
40 243
70 455
52 292
52 319
90 488
99 367
73 438
50 393
44 345
85 481
66 330
13 294
10 479
83 294
12 276
25 233
11 421
34 420
42 222
62 246
88 226
51 432
29 493
77 421
64 335
92 347
54 379
13 243
49 263
100 239
54 253
10 408
80 259
62 385
64 316
59 491
90 492
28 255
54 444
88 270
36 275
54 442
90 205
50 259
59 220
60 357
44 319
75 446
48 290
88 359
66 460
70 447
100 469
26 384
10 376
78 439
63 217
33 303
96 263
44 240
39 461
74 255
17 360
50 357
74 229
20 254
38 262
47 389
31 451
44 442
83 373
75 477
96 459
88 414
87 442
99 254
42 300
16 381
19 259
21 358
47 201
38 226
28 361
66 242
54 335
88 388
74 261
35 348
22 392
23 441
